
--- Job Montalvo_Part2BB.gms Start 10/24/19 09:52:04 28.2.0 r750fa45 WEX-WEI x86 64bit/MS Windows
--- GAMS Parameters defined
    Input C:\Users\jorge\OneDrive\Documentos\DTU\Courses\Modelling and Analysis of Sustainable Energy Systems using Operations Research\Assignment 1\Montalvo_Part2BB.gms
    PageWidth 80
    PageSize 0
    PageContr 3
    Action CE
    ScrDir C:\Users\jorge\OneDrive\Documentos\DTU\Courses\Modelling and Analysis of Sustainable Energy Systems using Operations Research\Assignment 1\225a\
    SysDir C:\Program Files (x86)\GAMS\28.2\
    WorkDir C:\Users\jorge\OneDrive\Documentos\DTU\Courses\Modelling and Analysis of Sustainable Energy Systems using Operations Research\Assignment 1\
    LogOption 3
    DFormat 0
    TFormat 0
    ErrorLog 99
    IDE 1
GAMS 28.2.0   Copyright (C) 1987-2019 GAMS Development. All rights reserved
Licensee: Course License Fall 2019                       G190805/0001AO-GEN
          Technical University of Denmark, Management Engineering    DCE146
          License for teaching and research at degree granting institutions
          License Admin: Thomas Stidsen, thst@man.dtu.dk                   
--- Starting compilation
--- Montalvo_Part2BB.gms(37) 2 Mb
--- Starting execution: elapsed 0:00:00.013
--- Generating LP model happiness
--- Montalvo_Part2BB.gms(36) 3 Mb
---   9 rows  3 columns  12 non-zeroes
--- Executing CPLEX: elapsed 0:00:00.034

IBM ILOG CPLEX   28.2.0 r750fa45 Released Aug 19, 2019 WEI x86 64bit/MS Window
Cplex 12.9.0.0

Reading data...
Starting Cplex...
Space for names approximately 0.00 Mb
Use option 'names no' to turn use of names off
CPXPARAM_Advance                                 0
CPXPARAM_Simplex_Display                         2
CPXPARAM_Threads                                 1
CPXPARAM_Parallel                                1
CPXPARAM_Simplex_Limits_Iterations               2000000000
CPXPARAM_TimeLimit                               1000
CPXPARAM_Tune_TimeLimit                          200
Tried aggregator 1 time.
LP Presolve eliminated 9 rows and 3 columns.
All rows and columns eliminated.
Presolve time = 0.00 sec. (0.00 ticks)
LP status(1): optimal
Cplex Time: 0.00sec (det. 0.00 ticks)

Optimal solution found.
Objective :         199.000000

--- Restarting execution
--- Montalvo_Part2BB.gms(36) 2 Mb
--- Reading solution for model happiness
*** Status: Normal completion
--- Job Montalvo_Part2BB.gms Stop 10/24/19 09:52:04 elapsed 0:00:00.148
